2	25
960	641	436	736	385	322	894	66	336	383	638	21	785	675	976	138	1000	981	476	616	924	912	351	43	876	
549	850	153	98	707	564	980	631	722	598	486	76	238	389	798	282	692	506	950	454	458	763	982	88	77	
4910	4910	
